NAME          ClpDefau  FREE
ROWS
 N  OBJROW
 L  ZMUNI1_PCT
 L  ZMUNI2_PCT
 L  ZMUNI3_PCT
 L  ZMUNI4_PCT
 L  ZMUNI5_PCT
 L  ZMUNI6_PCT
 L  ZMUNI7_PCT
 L  ZMUNI8_PCT
 L  ZMUNI9_PCT
COLUMNS
    QMUNI1 OBJROW 1.          
    QMUNI1 ZMUNI1_PCT 28920.269   
    QMUNI1 ZMUNI2_PCT 2415.51399  
    QMUNI1 ZMUNI3_PCT 5244.92264  
    QMUNI1 ZMUNI4_PCT 3756.3324   
    QMUNI1 ZMUNI5_PCT 1076.4122   
    QMUNI1 ZMUNI6_PCT 1283.0735   
    QMUNI1 ZMUNI7_PCT 3097.122907 
    QMUNI1 ZMUNI8_PCT 2914.38102  
    QMUNI1 ZMUNI9_PCT 2297.9736   
    QMUNI2 OBJROW 1.          
    QMUNI2 ZMUNI1_PCT 1864.1472   
    QMUNI2 ZMUNI2_PCT 32607.07855 
    QMUNI2 ZMUNI3_PCT 2720.9282   
    QMUNI2 ZMUNI4_PCT 2775.0015   
    QMUNI2 ZMUNI5_PCT 287.5328    
    QMUNI2 ZMUNI6_PCT 343.0367    
    QMUNI2 ZMUNI7_PCT 1263.016462 
    QMUNI2 ZMUNI8_PCT 1512.57515  
    QMUNI2 ZMUNI9_PCT 1389.3128   
    QMUNI3 OBJROW 1.          
    QMUNI3 ZMUNI1_PCT 4453.0868   
    QMUNI3 ZMUNI2_PCT 2599.47776  
    QMUNI3 ZMUNI3_PCT 29470.68215 
    QMUNI3 ZMUNI4_PCT 5226.5167   
    QMUNI3 ZMUNI5_PCT  -2.4796    
    QMUNI3 ZMUNI6_PCT 131.8932    
    QMUNI3 ZMUNI7_PCT 1326.465606 
    QMUNI3 ZMUNI8_PCT 1308.01201  
    QMUNI3 ZMUNI9_PCT 642.9672    
    QMUNI4 OBJROW 1.          
    QMUNI4 ZMUNI1_PCT 3275.2991   
    QMUNI4 ZMUNI2_PCT 2875.13732  
    QMUNI4 ZMUNI3_PCT 5677.93847  
    QMUNI4 ZMUNI4_PCT 97994.4229  
    QMUNI4 ZMUNI5_PCT  -323.6771  
    QMUNI4 ZMUNI6_PCT  -216.3887  
    QMUNI4 ZMUNI7_PCT 772.464275  
    QMUNI4 ZMUNI8_PCT 820.25528   
    QMUNI4 ZMUNI9_PCT 332.2601    
    QMUNI5 OBJROW 1.          
    QMUNI5 ZMUNI1_PCT 301.9333    
    QMUNI5 ZMUNI2_PCT 105.04722   
    QMUNI5 ZMUNI3_PCT 223.01674   
    QMUNI5 ZMUNI4_PCT 167.0837    
    QMUNI5 ZMUNI5_PCT 30038.3567  
    QMUNI5 ZMUNI6_PCT 3092.289    
    QMUNI5 ZMUNI7_PCT 601.106882  
    QMUNI5 ZMUNI8_PCT 449.65744   
    QMUNI5 ZMUNI9_PCT 322.3419    
    QMUNI6 OBJROW 1.          
    QMUNI6 ZMUNI1_PCT 601.5777    
    QMUNI6 ZMUNI2_PCT 329.49447   
    QMUNI6 ZMUNI3_PCT 492.95426   
    QMUNI6 ZMUNI4_PCT 386.8103    
    QMUNI6 ZMUNI5_PCT 3123.2833   
    QMUNI6 ZMUNI6_PCT 30445.0989  
    QMUNI6 ZMUNI7_PCT 1242.607832 
    QMUNI6 ZMUNI8_PCT 1066.1602   
    QMUNI6 ZMUNI9_PCT 1002.8839   
    QMUNI7 OBJROW 1.          
    QMUNI7 ZMUNI1_PCT 1809.3109   
    QMUNI7 ZMUNI2_PCT 1096.63009  
    QMUNI7 ZMUNI3_PCT 1594.97261  
    QMUNI7 ZMUNI4_PCT 1185.9894   
    QMUNI7 ZMUNI5_PCT 599.8611    
    QMUNI7 ZMUNI6_PCT 845.1462    
    QMUNI7 ZMUNI7_PCT 26385.003329
    QMUNI7 ZMUNI8_PCT 3293.41888  
    QMUNI7 ZMUNI9_PCT 1826.2863   
    QMUNI8 OBJROW 1.          
    QMUNI8 ZMUNI1_PCT 1143.5509   
    QMUNI8 ZMUNI2_PCT 930.97686   
    QMUNI8 ZMUNI3_PCT 1150.5127   
    QMUNI8 ZMUNI4_PCT 850.8682    
    QMUNI8 ZMUNI5_PCT  -2.4796    
    QMUNI8 ZMUNI6_PCT 112.3429    
    QMUNI8 ZMUNI7_PCT 2235.734462 
    QMUNI8 ZMUNI8_PCT 24962.18681 
    QMUNI8 ZMUNI9_PCT 1436.4243   
    QMUNI9 OBJROW 1.          
    QMUNI9 ZMUNI1_PCT 231.9336    
    QMUNI9 ZMUNI2_PCT 568.19915   
    QMUNI9 ZMUNI3_PCT 338.02987   
    QMUNI9 ZMUNI4_PCT 286.4838    
    QMUNI9 ZMUNI5_PCT  -347.1375  
    QMUNI9 ZMUNI6_PCT  -339.8895  
    QMUNI9 ZMUNI7_PCT 214.195251  
    QMUNI9 ZMUNI8_PCT 801.46789   
    QMUNI9 ZMUNI9_PCT 23876.5717  
RHS
    RHS ZMUNI1_PCT  -1.27416679
    RHS ZMUNI2_PCT  -2.37122381
    RHS ZMUNI3_PCT  -2.25703872
    RHS ZMUNI4_PCT  -0.80009468
    RHS ZMUNI5_PCT  -2.65751676
    RHS ZMUNI6_PCT  -2.75804344
    RHS ZMUNI7_PCT  -6.17971444
    RHS ZMUNI8_PCT  -8.0614815 
    RHS ZMUNI9_PCT  -8.46219657
BOUNDS
 LO BOUND QMUNI1 -0.0016354  
 UP BOUND QMUNI1      1.1e+10
 LO BOUND QMUNI2 -0.001177624
 UP BOUND QMUNI2      1.1e+10
 LO BOUND QMUNI3 -0.001243119
 UP BOUND QMUNI3      1.1e+10
 LO BOUND QMUNI4 -0.00042493 
 UP BOUND QMUNI4      1.1e+10
 LO BOUND QMUNI5 -0.001316334
 UP BOUND QMUNI5      1.1e+10
 LO BOUND QMUNI6 -0.00154267 
 UP BOUND QMUNI6      1.1e+10
 LO BOUND QMUNI7 -0.001226947
 UP BOUND QMUNI7      1.1e+10
 LO BOUND QMUNI8 -0.001415724
 UP BOUND QMUNI8      1.1e+10
 LO BOUND QMUNI9 -0.00202062 
 UP BOUND QMUNI9      1.1e+10
ENDATA
